# Objective value = 6
z1 1
z2 1
z3 0
z4 1
z5 0
z6 1
y1 1
y2 0
y3 1
y4 0
y5 0
y6 0
x11 0
x12 0
x13 1
x14 0
x15 0
x16 0
x21 1
x22 0
x23 0
x24 0
x25 0
x26 0
x31 0
x32 0
x33 0
x34 0
x35 0
x36 0
x41 0
x42 0
x43 1
x44 0
x45 0
x46 0
x51 0
x52 0
x53 0
x54 0
x55 0
x56 0
x61 1
x62 0
x63 0
x64 0
x65 0
x66 0
